NAME : X-n524-k153
COMMENT : "Generated by Uchoa, Pecin, Pessoa, Poggi, Subramanian, and Vidal (2013)"
TYPE : CVRP
DIMENSION : 524
EDGE_WEIGHT_TYPE : EUC_2D
CAPACITY : 125
NODE_COORD_SECTION
1 691 729
2 978 828
3 427 367
4 777 543
5 190 596
6 773 750
7 234 727
8 851 358
9 140 69
10 891 285
11 467 13
12 537 162
13 636 355
14 213 284
15 75 877
16 384 814
17 606 173
18 76 236
19 86 733
20 642 61
21 303 261
22 771 775
23 107 264
24 763 43
25 811 873
26 38 170
27 822 920
28 907 792
29 539 273
30 576 836
31 491 411
32 430 725
33 727 248
34 532 825
35 457 218
36 398 153
37 942 597
38 8 330
39 637 85
40 75 781
41 578 635
42 560 188
43 27 523
44 432 198
45 359 691
46 695 372
47 203 307
48 641 389
49 836 612
50 375 499
51 818 980
52 577 226
53 889 259
54 516 324
55 102 346
56 318 976
57 223 11
58 484 245
59 365 982
60 648 790
61 878 261
62 600 800
63 493 722
64 549 214
65 714 918
66 638 166
67 452 172
68 711 687
69 924 905
70 326 662
71 786 203
72 24 32
73 529 661
74 843 248
75 115 449
76 82 971
77 876 644
78 322 24
79 642 810
80 685 607
81 141 824
82 351 732
83 641 954
84 330 941
85 830 188
86 469 250
87 970 812
88 723 360
89 274 238
90 668 103
91 562 82
92 269 147
93 135 493
94 895 953
95 930 729
96 579 972
97 901 987
98 546 102
99 664 479
100 967 393
101 388 767
102 977 995
103 933 329
104 947 364
105 242 400
106 991 716
107 983 38
108 738 728
109 436 466
110 346 490
111 639 634
112 765 715
113 772 60
114 254 183
115 804 906
116 150 451
117 378 297
118 881 802
119 959 912
120 225 450
121 213 802
122 842 994
123 662 474
124 20 116
125 562 217
126 709 544
127 50 682
128 771 244
129 538 704
130 506 883
131 341 389
132 414 522
133 583 435
134 210 579
135 326 715
136 92 24
137 969 100
138 252 841
139 879 544
140 648 720
141 291 405
142 14 19
143 446 28
144 130 966
145 978 572
146 333 105
147 558 84
148 288 10
149 783 837
150 1000 230
151 319 895
152 76 494
153 289 952
154 254 165
155 915 405
156 151 945
157 407 685
158 294 824
159 106 831
160 373 284
161 875 321
162 768 758
163 735 150
164 304 323
165 760 158
166 277 663
167 217 608
168 712 264
169 958 12
170 879 873
171 52 214
172 63 197
173 690 714
174 579 862
175 313 245
176 32 608
177 9 608
178 840 747
179 152 742
180 994 868
181 294 57
182 76 784
183 302 11
184 527 742
185 753 939
186 156 870
187 571 127
188 913 884
189 922 146
190 900 41
191 346 427
192 637 341
193 162 87
194 581 979
195 93 14
196 888 48
197 168 188
198 427 499
199 856 260
200 54 332
201 459 387
202 118 61
203 754 299
204 233 411
205 883 640
206 288 268
207 489 533
208 720 892
209 115 418
210 22 358
211 839 126
212 516 272
213 162 208
214 361 714
215 157 512
216 826 443
217 855 12
218 798 356
219 882 889
220 554 183
221 354 851
222 776 448
223 21 719
224 812 664
225 650 254
226 196 793
227 668 231
228 412 946
229 57 773
230 911 335
231 490 922
232 371 480
233 723 473
234 223 658
235 234 50
236 408 609
237 118 434
238 393 488
239 225 141
240 444 66
241 547 252
242 132 189
243 865 488
244 106 475
245 636 540
246 104 269
247 135 647
248 222 849
249 844 424
250 428 875
251 94 941
252 325 93
253 957 47
254 172 293
255 381 958
256 148 504
257 588 69
258 863 453
259 709 51
260 129 266
261 679 164
262 977 422
263 372 843
264 912 957
265 1000 521
266 442 912
267 743 716
268 838 43
269 649 346
270 144 771
271 771 321
272 454 383
273 553 361
274 419 490
275 482 77
276 13 726
277 967 302
278 556 701
279 484 665
280 969 209
281 972 422
282 297 676
283 461 532
284 476 864
285 978 988
286 340 827
287 675 391
288 895 110
289 225 785
290 832 207
291 465 723
292 289 259
293 281 611
294 875 10
295 752 271
296 926 12
297 539 782
298 25 72
299 530 546
300 772 963
301 724 627
302 791 367
303 375 323
304 0 91
305 385 995
306 132 510
307 941 144
308 488 274
309 403 745
310 965 258
311 456 817
312 313 773
313 486 256
314 657 8
315 231 914
316 256 745
317 668 922
318 528 298
319 153 272
320 303 733
321 814 649
322 352 306
323 187 498
324 141 175
325 115 362
326 857 350
327 878 459
328 663 898
329 592 503
330 222 391
331 846 792
332 461 617
333 592 526
334 582 527
335 290 396
336 333 441
337 292 402
338 522 501
339 489 939
340 781 370
341 197 119
342 582 192
343 299 353
344 506 792
345 638 178
346 755 124
347 654 335
348 917 986
349 277 98
350 986 960
351 66 850
352 623 623
353 602 913
354 674 0
355 125 625
356 937 264
357 430 671
358 171 691
359 1 656
360 374 862
361 407 938
362 284 116
363 939 702
364 155 256
365 504 293
366 770 501
367 764 790
368 702 683
369 525 835
370 839 711
371 379 711
372 140 264
373 597 673
374 657 752
375 265 523
376 798 514
377 679 437
378 843 272
379 981 47
380 708 837
381 55 768
382 965 58
383 664 373
384 103 28
385 841 826
386 47 539
387 530 354
388 924 776
389 477 784
390 69 282
391 371 110
392 309 154
393 234 333
394 460 499
395 61 527
396 104 132
397 711 178
398 602 538
399 47 755
400 357 66
401 332 541
402 332 390
403 860 711
404 817 206
405 853 658
406 440 187
407 603 576
408 438 190
409 857 282
410 169 702
411 461 299
412 878 549
413 252 181
414 714 846
415 196 92
416 995 201
417 780 638
418 724 171
419 650 937
420 353 961
421 505 953
422 801 374
423 239 74
424 718 26
425 325 941
426 0 789
427 461 518
428 559 493
429 461 432
430 330 888
431 391 542
432 548 841
433 965 772
434 252 790
435 181 188
436 61 446
437 215 324
438 181 749
439 562 764
440 678 70
441 422 965
442 985 664
443 344 341
444 678 370
445 118 587
446 483 572
447 913 258
448 548 391
449 669 600
450 951 149
451 735 621
452 474 67
453 765 428
454 615 218
455 854 798
456 850 728
457 928 10
458 154 235
459 390 924
460 768 589
461 4 303
462 204 802
463 43 400
464 525 257
465 673 778
466 850 158
467 593 392
468 123 233
469 935 921
470 130 687
471 394 334
472 765 405
473 625 734
474 540 408
475 881 423
476 358 553
477 903 236
478 524 486
479 64 121
480 11 847
481 758 962
482 981 723
483 36 659
484 539 348
485 506 458
486 762 62
487 465 529
488 956 508
489 294 792
490 173 89
491 96 995
492 982 670
493 593 42
494 473 529
495 256 579
496 538 566
497 706 808
498 373 748
499 346 575
500 252 819
501 260 698
502 538 250
503 348 539
504 952 444
505 716 841
506 84 185
507 320 795
508 168 346
509 857 379
510 84 839
511 901 930
512 637 820
513 297 973
514 61 140
515 804 298
516 795 51
517 979 294
518 492 157
519 324 520
520 285 618
521 672 535
522 306 601
523 832 980
524 450 987
PICKUP_AND_DELIVERY_SECTION
1 0 0 1000000000 0 0 0
2 0 0 1000000000 0 0 95
3 0 0 1000000000 0 0 66
4 0 0 1000000000 0 0 66
5 0 0 1000000000 0 50 0
6 0 0 1000000000 0 0 55
7 0 0 1000000000 0 0 91
8 0 0 1000000000 0 0 100
9 0 0 1000000000 0 73 0
10 0 0 1000000000 0 0 96
11 0 0 1000000000 0 0 85
12 0 0 1000000000 0 0 82
13 0 0 1000000000 0 72 0
14 0 0 1000000000 0 0 77
15 0 0 1000000000 0 0 62
16 0 0 1000000000 0 0 86
17 0 0 1000000000 0 100 0
18 0 0 1000000000 0 0 63
19 0 0 1000000000 0 0 94
20 0 0 1000000000 0 0 97
21 0 0 1000000000 0 78 0
22 0 0 1000000000 0 0 94
23 0 0 1000000000 0 0 83
24 0 0 1000000000 0 0 90
25 0 0 1000000000 0 71 0
26 0 0 1000000000 0 0 59
27 0 0 1000000000 0 0 88
28 0 0 1000000000 0 0 50
29 0 0 1000000000 0 65 0
30 0 0 1000000000 0 0 75
31 0 0 1000000000 0 0 50
32 0 0 1000000000 0 0 56
33 0 0 1000000000 0 90 0
34 0 0 1000000000 0 0 56
35 0 0 1000000000 0 0 71
36 0 0 1000000000 0 0 95
37 0 0 1000000000 0 93 0
38 0 0 1000000000 0 0 97
39 0 0 1000000000 0 0 79
40 0 0 1000000000 0 0 94
41 0 0 1000000000 0 69 0
42 0 0 1000000000 0 0 90
43 0 0 1000000000 0 0 63
44 0 0 1000000000 0 0 93
45 0 0 1000000000 0 82 0
46 0 0 1000000000 0 0 53
47 0 0 1000000000 0 0 92
48 0 0 1000000000 0 0 70
49 0 0 1000000000 0 88 0
50 0 0 1000000000 0 0 57
51 0 0 1000000000 0 0 93
52 0 0 1000000000 0 0 69
53 0 0 1000000000 0 66 0
54 0 0 1000000000 0 0 98
55 0 0 1000000000 0 0 75
56 0 0 1000000000 0 0 69
57 0 0 1000000000 0 87 0
58 0 0 1000000000 0 0 69
59 0 0 1000000000 0 0 55
60 0 0 1000000000 0 0 64
61 0 0 1000000000 0 92 0
62 0 0 1000000000 0 0 96
63 0 0 1000000000 0 0 80
64 0 0 1000000000 0 0 85
65 0 0 1000000000 0 66 0
66 0 0 1000000000 0 0 99
67 0 0 1000000000 0 0 54
68 0 0 1000000000 0 0 77
69 0 0 1000000000 0 67 0
70 0 0 1000000000 0 0 77
71 0 0 1000000000 0 0 66
72 0 0 1000000000 0 0 74
73 0 0 1000000000 0 93 0
74 0 0 1000000000 0 0 81
75 0 0 1000000000 0 0 60
76 0 0 1000000000 0 0 73
77 0 0 1000000000 0 64 0
78 0 0 1000000000 0 0 84
79 0 0 1000000000 0 0 60
80 0 0 1000000000 0 0 57
81 0 0 1000000000 0 95 0
82 0 0 1000000000 0 0 63
83 0 0 1000000000 0 0 51
84 0 0 1000000000 0 0 77
85 0 0 1000000000 0 67 0
86 0 0 1000000000 0 0 70
87 0 0 1000000000 0 0 98
88 0 0 1000000000 0 0 66
89 0 0 1000000000 0 60 0
90 0 0 1000000000 0 0 56
91 0 0 1000000000 0 0 72
92 0 0 1000000000 0 0 77
93 0 0 1000000000 0 71 0
94 0 0 1000000000 0 0 51
95 0 0 1000000000 0 0 79
96 0 0 1000000000 0 0 97
97 0 0 1000000000 0 93 0
98 0 0 1000000000 0 0 84
99 0 0 1000000000 0 0 79
100 0 0 1000000000 0 0 75
101 0 0 1000000000 0 86 0
102 0 0 1000000000 0 0 58
103 0 0 1000000000 0 0 65
104 0 0 1000000000 0 0 54
105 0 0 1000000000 0 57 0
106 0 0 1000000000 0 0 81
107 0 0 1000000000 0 0 88
108 0 0 1000000000 0 0 85
109 0 0 1000000000 0 82 0
110 0 0 1000000000 0 0 82
111 0 0 1000000000 0 0 81
112 0 0 1000000000 0 0 59
113 0 0 1000000000 0 81 0
114 0 0 1000000000 0 0 94
115 0 0 1000000000 0 0 82
116 0 0 1000000000 0 0 81
117 0 0 1000000000 0 94 0
118 0 0 1000000000 0 0 75
119 0 0 1000000000 0 0 63
120 0 0 1000000000 0 0 95
121 0 0 1000000000 0 54 0
122 0 0 1000000000 0 0 85
123 0 0 1000000000 0 0 52
124 0 0 1000000000 0 0 53
125 0 0 1000000000 0 67 0
126 0 0 1000000000 0 0 56
127 0 0 1000000000 0 0 61
128 0 0 1000000000 0 0 53
129 0 0 1000000000 0 80 0
130 0 0 1000000000 0 0 76
131 0 0 1000000000 0 0 56
132 0 0 1000000000 0 0 52
133 0 0 1000000000 0 61 0
134 0 0 1000000000 0 0 53
135 0 0 1000000000 0 0 87
136 0 0 1000000000 0 0 95
137 0 0 1000000000 0 73 0
138 0 0 1000000000 0 0 52
139 0 0 1000000000 0 0 60
140 0 0 1000000000 0 0 91
141 0 0 1000000000 0 98 0
142 0 0 1000000000 0 0 58
143 0 0 1000000000 0 0 65
144 0 0 1000000000 0 0 88
145 0 0 1000000000 0 60 0
146 0 0 1000000000 0 0 62
147 0 0 1000000000 0 0 97
148 0 0 1000000000 0 0 96
149 0 0 1000000000 0 59 0
150 0 0 1000000000 0 0 76
151 0 0 1000000000 0 0 83
152 0 0 1000000000 0 0 64
153 0 0 1000000000 0 83 0
154 0 0 1000000000 0 0 65
155 0 0 1000000000 0 0 57
156 0 0 1000000000 0 0 55
157 0 0 1000000000 0 93 0
158 0 0 1000000000 0 0 71
159 0 0 1000000000 0 0 89
160 0 0 1000000000 0 0 69
161 0 0 1000000000 0 93 0
162 0 0 1000000000 0 0 86
163 0 0 1000000000 0 0 99
164 0 0 1000000000 0 0 70
165 0 0 1000000000 0 56 0
166 0 0 1000000000 0 0 75
167 0 0 1000000000 0 0 95
168 0 0 1000000000 0 0 60
169 0 0 1000000000 0 54 0
170 0 0 1000000000 0 0 57
171 0 0 1000000000 0 0 89
172 0 0 1000000000 0 0 53
173 0 0 1000000000 0 73 0
174 0 0 1000000000 0 0 78
175 0 0 1000000000 0 0 76
176 0 0 1000000000 0 0 55
177 0 0 1000000000 0 96 0
178 0 0 1000000000 0 0 80
179 0 0 1000000000 0 0 58
180 0 0 1000000000 0 0 83
181 0 0 1000000000 0 75 0
182 0 0 1000000000 0 0 84
183 0 0 1000000000 0 0 69
184 0 0 1000000000 0 0 90
185 0 0 1000000000 0 57 0
186 0 0 1000000000 0 0 61
187 0 0 1000000000 0 0 100
188 0 0 1000000000 0 0 95
189 0 0 1000000000 0 59 0
190 0 0 1000000000 0 0 60
191 0 0 1000000000 0 0 74
192 0 0 1000000000 0 0 55
193 0 0 1000000000 0 92 0
194 0 0 1000000000 0 0 76
195 0 0 1000000000 0 0 70
196 0 0 1000000000 0 0 92
197 0 0 1000000000 0 85 0
198 0 0 1000000000 0 0 85
199 0 0 1000000000 0 0 51
200 0 0 1000000000 0 0 61
201 0 0 1000000000 0 63 0
202 0 0 1000000000 0 0 59
203 0 0 1000000000 0 0 86
204 0 0 1000000000 0 0 86
205 0 0 1000000000 0 71 0
206 0 0 1000000000 0 0 50
207 0 0 1000000000 0 0 6
208 0 0 1000000000 0 0 6
209 0 0 1000000000 0 10 0
210 0 0 1000000000 0 0 2
211 0 0 1000000000 0 0 6
212 0 0 1000000000 0 0 1
213 0 0 1000000000 0 1 0
214 0 0 1000000000 0 0 3
215 0 0 1000000000 0 0 8
216 0 0 1000000000 0 0 7
217 0 0 1000000000 0 9 0
218 0 0 1000000000 0 0 8
219 0 0 1000000000 0 0 9
220 0 0 1000000000 0 0 7
221 0 0 1000000000 0 6 0
222 0 0 1000000000 0 0 7
223 0 0 1000000000 0 0 6
224 0 0 1000000000 0 0 6
225 0 0 1000000000 0 8 0
226 0 0 1000000000 0 0 3
227 0 0 1000000000 0 0 7
228 0 0 1000000000 0 0 6
229 0 0 1000000000 0 2 0
230 0 0 1000000000 0 0 10
231 0 0 1000000000 0 0 4
232 0 0 1000000000 0 0 3
233 0 0 1000000000 0 3 0
234 0 0 1000000000 0 0 5
235 0 0 1000000000 0 0 3
236 0 0 1000000000 0 0 10
237 0 0 1000000000 0 2 0
238 0 0 1000000000 0 0 9
239 0 0 1000000000 0 0 6
240 0 0 1000000000 0 0 3
241 0 0 1000000000 0 7 0
242 0 0 1000000000 0 0 3
243 0 0 1000000000 0 0 5
244 0 0 1000000000 0 0 5
245 0 0 1000000000 0 2 0
246 0 0 1000000000 0 0 5
247 0 0 1000000000 0 0 9
248 0 0 1000000000 0 0 2
249 0 0 1000000000 0 9 0
250 0 0 1000000000 0 0 10
251 0 0 1000000000 0 0 10
252 0 0 1000000000 0 0 8
253 0 0 1000000000 0 4 0
254 0 0 1000000000 0 0 2
255 0 0 1000000000 0 0 4
256 0 0 1000000000 0 0 9
257 0 0 1000000000 0 10 0
258 0 0 1000000000 0 0 1
259 0 0 1000000000 0 0 10
260 0 0 1000000000 0 0 9
261 0 0 1000000000 0 8 0
262 0 0 1000000000 0 0 5
263 0 0 1000000000 0 0 2
264 0 0 1000000000 0 0 5
265 0 0 1000000000 0 3 0
266 0 0 1000000000 0 0 1
267 0 0 1000000000 0 0 8
268 0 0 1000000000 0 0 2
269 0 0 1000000000 0 8 0
270 0 0 1000000000 0 0 3
271 0 0 1000000000 0 0 9
272 0 0 1000000000 0 0 5
273 0 0 1000000000 0 2 0
274 0 0 1000000000 0 0 2
275 0 0 1000000000 0 0 10
276 0 0 1000000000 0 0 1
277 0 0 1000000000 0 1 0
278 0 0 1000000000 0 0 6
279 0 0 1000000000 0 0 2
280 0 0 1000000000 0 0 5
281 0 0 1000000000 0 7 0
282 0 0 1000000000 0 0 4
283 0 0 1000000000 0 0 6
284 0 0 1000000000 0 0 4
285 0 0 1000000000 0 7 0
286 0 0 1000000000 0 0 8
287 0 0 1000000000 0 0 1
288 0 0 1000000000 0 0 3
289 0 0 1000000000 0 7 0
290 0 0 1000000000 0 0 2
291 0 0 1000000000 0 0 6
292 0 0 1000000000 0 0 1
293 0 0 1000000000 0 7 0
294 0 0 1000000000 0 0 5
295 0 0 1000000000 0 0 8
296 0 0 1000000000 0 0 2
297 0 0 1000000000 0 6 0
298 0 0 1000000000 0 0 5
299 0 0 1000000000 0 0 4
300 0 0 1000000000 0 0 5
301 0 0 1000000000 0 6 0
302 0 0 1000000000 0 0 5
303 0 0 1000000000 0 0 8
304 0 0 1000000000 0 0 5
305 0 0 1000000000 0 9 0
306 0 0 1000000000 0 0 10
307 0 0 1000000000 0 0 5
308 0 0 1000000000 0 0 1
309 0 0 1000000000 0 10 0
310 0 0 1000000000 0 0 8
311 0 0 1000000000 0 0 8
312 0 0 1000000000 0 0 9
313 0 0 1000000000 0 4 0
314 0 0 1000000000 0 0 10
315 0 0 1000000000 0 0 10
316 0 0 1000000000 0 0 7
317 0 0 1000000000 0 9 0
318 0 0 1000000000 0 0 9
319 0 0 1000000000 0 0 9
320 0 0 1000000000 0 0 2
321 0 0 1000000000 0 1 0
322 0 0 1000000000 0 0 10
323 0 0 1000000000 0 0 8
324 0 0 1000000000 0 0 3
325 0 0 1000000000 0 3 0
326 0 0 1000000000 0 0 3
327 0 0 1000000000 0 0 3
328 0 0 1000000000 0 0 6
329 0 0 1000000000 0 5 0
330 0 0 1000000000 0 0 7
331 0 0 1000000000 0 0 3
332 0 0 1000000000 0 0 2
333 0 0 1000000000 0 9 0
334 0 0 1000000000 0 0 8
335 0 0 1000000000 0 0 4
336 0 0 1000000000 0 0 6
337 0 0 1000000000 0 9 0
338 0 0 1000000000 0 0 10
339 0 0 1000000000 0 0 2
340 0 0 1000000000 0 0 8
341 0 0 1000000000 0 2 0
342 0 0 1000000000 0 0 5
343 0 0 1000000000 0 0 10
344 0 0 1000000000 0 0 7
345 0 0 1000000000 0 2 0
346 0 0 1000000000 0 0 2
347 0 0 1000000000 0 0 3
348 0 0 1000000000 0 0 10
349 0 0 1000000000 0 1 0
350 0 0 1000000000 0 0 7
351 0 0 1000000000 0 0 2
352 0 0 1000000000 0 0 8
353 0 0 1000000000 0 6 0
354 0 0 1000000000 0 0 7
355 0 0 1000000000 0 0 8
356 0 0 1000000000 0 0 8
357 0 0 1000000000 0 9 0
358 0 0 1000000000 0 0 1
359 0 0 1000000000 0 0 10
360 0 0 1000000000 0 0 1
361 0 0 1000000000 0 1 0
362 0 0 1000000000 0 0 2
363 0 0 1000000000 0 0 9
364 0 0 1000000000 0 0 5
365 0 0 1000000000 0 9 0
366 0 0 1000000000 0 0 4
367 0 0 1000000000 0 0 1
368 0 0 1000000000 0 0 9
369 0 0 1000000000 0 5 0
370 0 0 1000000000 0 0 6
371 0 0 1000000000 0 0 3
372 0 0 1000000000 0 0 5
373 0 0 1000000000 0 8 0
374 0 0 1000000000 0 0 8
375 0 0 1000000000 0 0 1
376 0 0 1000000000 0 0 10
377 0 0 1000000000 0 5 0
378 0 0 1000000000 0 0 2
379 0 0 1000000000 0 0 9
380 0 0 1000000000 0 0 6
381 0 0 1000000000 0 7 0
382 0 0 1000000000 0 0 5
383 0 0 1000000000 0 0 1
384 0 0 1000000000 0 0 2
385 0 0 1000000000 0 2 0
386 0 0 1000000000 0 0 5
387 0 0 1000000000 0 0 8
388 0 0 1000000000 0 0 9
389 0 0 1000000000 0 5 0
390 0 0 1000000000 0 0 2
391 0 0 1000000000 0 0 2
392 0 0 1000000000 0 0 7
393 0 0 1000000000 0 8 0
394 0 0 1000000000 0 0 10
395 0 0 1000000000 0 0 3
396 0 0 1000000000 0 0 7
397 0 0 1000000000 0 8 0
398 0 0 1000000000 0 0 7
399 0 0 1000000000 0 0 10
400 0 0 1000000000 0 0 8
401 0 0 1000000000 0 10 0
402 0 0 1000000000 0 0 9
403 0 0 1000000000 0 0 1
404 0 0 1000000000 0 0 4
405 0 0 1000000000 0 3 0
406 0 0 1000000000 0 0 10
407 0 0 1000000000 0 0 2
408 0 0 1000000000 0 0 2
409 0 0 1000000000 0 5 0
410 0 0 1000000000 0 0 3
411 0 0 1000000000 0 0 10
412 0 0 1000000000 0 0 7
413 0 0 1000000000 0 8 0
414 0 0 1000000000 0 0 5
415 0 0 1000000000 0 0 9
416 0 0 1000000000 0 0 9
417 0 0 1000000000 0 3 0
418 0 0 1000000000 0 0 6
419 0 0 1000000000 0 0 2
420 0 0 1000000000 0 0 9
421 0 0 1000000000 0 5 0
422 0 0 1000000000 0 0 8
423 0 0 1000000000 0 0 1
424 0 0 1000000000 0 0 8
425 0 0 1000000000 0 8 0
426 0 0 1000000000 0 0 6
427 0 0 1000000000 0 0 9
428 0 0 1000000000 0 0 10
429 0 0 1000000000 0 10 0
430 0 0 1000000000 0 0 8
431 0 0 1000000000 0 0 5
432 0 0 1000000000 0 0 5
433 0 0 1000000000 0 6 0
434 0 0 1000000000 0 0 2
435 0 0 1000000000 0 0 9
436 0 0 1000000000 0 0 7
437 0 0 1000000000 0 7 0
438 0 0 1000000000 0 0 4
439 0 0 1000000000 0 0 7
440 0 0 1000000000 0 0 6
441 0 0 1000000000 0 3 0
442 0 0 1000000000 0 0 6
443 0 0 1000000000 0 0 9
444 0 0 1000000000 0 0 6
445 0 0 1000000000 0 8 0
446 0 0 1000000000 0 0 10
447 0 0 1000000000 0 0 8
448 0 0 1000000000 0 0 9
449 0 0 1000000000 0 2 0
450 0 0 1000000000 0 0 4
451 0 0 1000000000 0 0 1
452 0 0 1000000000 0 0 9
453 0 0 1000000000 0 2 0
454 0 0 1000000000 0 0 2
455 0 0 1000000000 0 0 10
456 0 0 1000000000 0 0 7
457 0 0 1000000000 0 4 0
458 0 0 1000000000 0 0 1
459 0 0 1000000000 0 0 9
460 0 0 1000000000 0 0 7
461 0 0 1000000000 0 6 0
462 0 0 1000000000 0 0 9
463 0 0 1000000000 0 0 8
464 0 0 1000000000 0 0 2
465 0 0 1000000000 0 5 0
466 0 0 1000000000 0 0 7
467 0 0 1000000000 0 0 8
468 0 0 1000000000 0 0 7
469 0 0 1000000000 0 4 0
470 0 0 1000000000 0 0 1
471 0 0 1000000000 0 0 8
472 0 0 1000000000 0 0 2
473 0 0 1000000000 0 4 0
474 0 0 1000000000 0 0 6
475 0 0 1000000000 0 0 8
476 0 0 1000000000 0 0 5
477 0 0 1000000000 0 8 0
478 0 0 1000000000 0 0 2
479 0 0 1000000000 0 0 2
480 0 0 1000000000 0 0 6
481 0 0 1000000000 0 10 0
482 0 0 1000000000 0 0 10
483 0 0 1000000000 0 0 9
484 0 0 1000000000 0 0 2
485 0 0 1000000000 0 8 0
486 0 0 1000000000 0 0 7
487 0 0 1000000000 0 0 1
488 0 0 1000000000 0 0 5
489 0 0 1000000000 0 7 0
490 0 0 1000000000 0 0 8
491 0 0 1000000000 0 0 5
492 0 0 1000000000 0 0 1
493 0 0 1000000000 0 9 0
494 0 0 1000000000 0 0 4
495 0 0 1000000000 0 0 10
496 0 0 1000000000 0 0 2
497 0 0 1000000000 0 1 0
498 0 0 1000000000 0 0 8
499 0 0 1000000000 0 0 2
500 0 0 1000000000 0 0 6
501 0 0 1000000000 0 7 0
502 0 0 1000000000 0 0 5
503 0 0 1000000000 0 0 8
504 0 0 1000000000 0 0 5
505 0 0 1000000000 0 9 0
506 0 0 1000000000 0 0 3
507 0 0 1000000000 0 0 9
508 0 0 1000000000 0 0 6
509 0 0 1000000000 0 2 0
510 0 0 1000000000 0 0 3
511 0 0 1000000000 0 0 2
512 0 0 1000000000 0 0 2
513 0 0 1000000000 0 1 0
514 0 0 1000000000 0 0 7
515 0 0 1000000000 0 0 7
516 0 0 1000000000 0 0 1
517 0 0 1000000000 0 5 0
518 0 0 1000000000 0 0 3
519 0 0 1000000000 0 0 7
520 0 0 1000000000 0 0 5
521 0 0 1000000000 0 1 0
522 0 0 1000000000 0 0 8
523 0 0 1000000000 0 0 9
524 0 0 1000000000 0 0 3
